%%% static parameters %%%
timespan = 1;
Clients_N = [1000];
Demand_W = [15];
Lt0 = [4];
Lt1 = [4];
SS_ = [0.85];
DS_D = [20];
K = [200];
MA = [500];
HC = [0.05];
%%% dynamic parameters %%%
lost_ratio_sales_ret_th = 0.001898873469610858;
lost_ratio_sales_ret_w = 25;
lost_ratio_sales_dis_th = 0.0027859898196658083;
lost_ratio_sales_dis_w = 50;
lost_ratio_sales_fac_th = 0.0033644182699518023;
lost_ratio_sales_fac_w = 21;
stock_customer_MA_mean_relative_th = 0.2810618400541499;
stock_customer_MA_mean_relative_w = 25;
stock_distributor_MA_mean_relative_th = 0.029123446771608164;
stock_distributor_MA_mean_relative_w = 22;
stock_retailer_MA_mean_relative_th = 0.6983436243773242;
stock_retailer_MA_mean_relative_w = 55;
stock_factory_MA_mean_relative_th = 0.3030379664934717;
stock_factory_MA_mean_relative_w = 72;
